<instance format="XCSP3" type="CSP">
<variables>
<array id="u0" size="[5]"> 0..8 </array>
<array id="id0" size="[5]"> 0..29 </array>
<array id="u1" size="[5]"> 0..8 </array>
<array id="id1" size="[5]"> 0..29 </array>
<array id="u2" size="[5]"> 0..8 </array>
<array id="id2" size="[5]"> 0..29 </array>
<array id="u3" size="[5]"> 0..8 </array>
<array id="id3" size="[5]"> 0..29 </array>
<array id="u4" size="[5]"> 0..8 </array>
<array id="id4" size="[5]"> 0..29 </array>
<array id="u5" size="[5]"> 0..8 </array>
<array id="id5" size="[5]"> 0..29 </array>
<array id="d5" size="[5]"> 0..8 </array>
<array id="l0" size="[6]"> 0..8 </array>
<array id="l1" size="[6]"> 0..8 </array>
<array id="l2" size="[6]"> 0..8 </array>
<array id="l3" size="[6]"> 0..8 </array>
<array id="l4" size="[6]"> 0..8 </array>
<array id="r4" size="[6]"> 0..8 </array>
</variables>
<constraints>
<allDifferent> id0[] id1[] id2[] id3[] id4[] id5[] </allDifferent>
<group>
<extension>
<list> %0 %1 %2 %3 %4 </list>
<supports> (0,0,0,1,3)(0,0,1,3,0)(0,1,3,0,0)(0,3,0,0,1)(1,0,0,2,1)(1,0,2,1,0)(1,1,0,0,2)(1,2,1,0,0)(2,0,0,2,3)(2,0,2,3,0)(2,2,3,0,0)(2,3,0,0,2)(3,0,0,3,1)(3,0,3,1,0)(3,1,0,0,3)(3,3,1,0,0)(4,0,1,4,2)(4,1,4,2,0)(4,2,0,1,4)(4,4,2,0,1)(5,0,1,5,1)(5,1,0,1,5)(5,1,5,1,0)(5,5,1,0,1)(6,0,1,6,2)(6,1,6,2,0)(6,2,0,1,6)(6,6,2,0,1)(7,0,1,6,3)(7,1,6,3,0)(7,3,0,1,6)(7,6,3,0,1)(8,0,1,7,2)(8,1,7,2,0)(8,2,0,1,7)(8,7,2,0,1)(9,0,2,4,3)(9,2,4,3,0)(9,3,0,2,4)(9,4,3,0,2)(10,0,2,5,1)(10,1,0,2,5)(10,2,5,1,0)(10,5,1,0,2)(11,0,2,5,2)(11,2,0,2,5)(11,2,5,2,0)(11,5,2,0,2)(12,0,2,8,1)(12,1,0,2,8)(12,2,8,1,0)(12,8,1,0,2)(13,0,3,4,1)(13,1,0,3,4)(13,3,4,1,0)(13,4,1,0,3)(14,0,3,4,2)(14,2,0,3,4)(14,3,4,2,0)(14,4,2,0,3)(15,0,3,7,3)(15,3,0,3,7)(15,3,7,3,0)(15,7,3,0,3)(16,0,3,8,2)(16,2,0,3,8)(16,3,8,2,0)(16,8,2,0,3)(17,0,3,8,3)(17,3,0,3,8)(17,3,8,3,0)(17,8,3,0,3)(18,4,5,4,7)(18,4,7,4,5)(18,5,4,7,4)(18,7,4,5,4)(19,4,5,4,8)(19,4,8,4,5)(19,5,4,8,4)(19,8,4,5,4)(20,4,5,6,8)(20,5,6,8,4)(20,6,8,4,5)(20,8,4,5,6)(21,4,5,8,8)(21,5,8,8,4)(21,8,4,5,8)(21,8,8,4,5)(22,4,6,6,5)(22,5,4,6,6)(22,6,5,4,6)(22,6,6,5,4)(23,4,7,5,8)(23,5,8,4,7)(23,7,5,8,4)(23,8,4,7,5)(24,4,7,8,7)(24,7,4,7,8)(24,7,8,7,4)(24,8,7,4,7)(25,4,8,5,7)(25,5,7,4,8)(25,7,4,8,5)(25,8,5,7,4)(26,5,6,6,6)(26,6,5,6,6)(26,6,6,5,6)(26,6,6,6,5)(27,5,6,8,7)(27,6,8,7,5)(27,7,5,6,8)(27,8,7,5,6)(28,6,7,6,8)(28,6,8,6,7)(28,7,6,8,6)(28,8,6,7,6)(29,6,7,7,7)(29,7,6,7,7)(29,7,7,6,7)(29,7,7,7,6) </supports>
</extension>
<args> id0[0] u0[0] l1[0] u1[0] l0[0] </args>
<args> id0[1] u0[1] l2[0] u1[1] l1[0] </args>
<args> id0[2] u0[2] l3[0] u1[2] l2[0] </args>
<args> id0[3] u0[3] l4[0] u1[3] l3[0] </args>
<args> id0[4] u0[4] r4[0] u1[4] l4[0] </args>
<args> id1[0] u1[0] l1[1] u2[0] l0[1] </args>
<args> id1[1] u1[1] l2[1] u2[1] l1[1] </args>
<args> id1[2] u1[2] l3[1] u2[2] l2[1] </args>
<args> id1[3] u1[3] l4[1] u2[3] l3[1] </args>
<args> id1[4] u1[4] r4[1] u2[4] l4[1] </args>
<args> id2[0] u2[0] l1[2] u3[0] l0[2] </args>
<args> id2[1] u2[1] l2[2] u3[1] l1[2] </args>
<args> id2[2] u2[2] l3[2] u3[2] l2[2] </args>
<args> id2[3] u2[3] l4[2] u3[3] l3[2] </args>
<args> id2[4] u2[4] r4[2] u3[4] l4[2] </args>
<args> id3[0] u3[0] l1[3] u4[0] l0[3] </args>
<args> id3[1] u3[1] l2[3] u4[1] l1[3] </args>
<args> id3[2] u3[2] l3[3] u4[2] l2[3] </args>
<args> id3[3] u3[3] l4[3] u4[3] l3[3] </args>
<args> id3[4] u3[4] r4[3] u4[4] l4[3] </args>
<args> id4[0] u4[0] l1[4] u5[0] l0[4] </args>
<args> id4[1] u4[1] l2[4] u5[1] l1[4] </args>
<args> id4[2] u4[2] l3[4] u5[2] l2[4] </args>
<args> id4[3] u4[3] l4[4] u5[3] l3[4] </args>
<args> id4[4] u4[4] r4[4] u5[4] l4[4] </args>
<args> id5[0] u5[0] l1[5] d5[0] l0[5] </args>
<args> id5[1] u5[1] l2[5] d5[1] l1[5] </args>
<args> id5[2] u5[2] l3[5] d5[2] l2[5] </args>
<args> id5[3] u5[3] l4[5] d5[3] l3[5] </args>
<args> id5[4] u5[4] r4[5] d5[4] l4[5] </args>
</group>
<group>
<intension> eq(%0,%1) </intension>
<args> l0[0] 0 </args>
<args> l0[1] 0 </args>
<args> l0[2] 0 </args>
<args> l0[3] 0 </args>
<args> l0[4] 0 </args>
<args> l0[5] 0 </args>
</group>
<group>
<intension> eq(%0,%1) </intension>
<args> r4[0] 0 </args>
<args> r4[1] 0 </args>
<args> r4[2] 0 </args>
<args> r4[3] 0 </args>
<args> r4[4] 0 </args>
<args> r4[5] 0 </args>
</group>
<group>
<intension> eq(%0,%1) </intension>
<args> u0[0] 0 </args>
<args> u0[1] 0 </args>
<args> u0[2] 0 </args>
<args> u0[3] 0 </args>
<args> u0[4] 0 </args>
</group>
<group>
<intension> eq(%0,%1) </intension>
<args> d5[0] 0 </args>
<args> d5[1] 0 </args>
<args> d5[2] 0 </args>
<args> d5[3] 0 </args>
<args> d5[4] 0 </args>
</group>
</constraints>
</instance>
